Route #1: 1 3 35 49 45 41 7 13 28 38 10 34 44 31 1
Route #2: 1 5 27 48 19 12 37 15 4 23 1
Route #3: 1 50 17 25 26 8 1
Route #4: 1 21 32 39 47 24 11 1
Route #5: 1 30 20 29 33 2 1
Route #6: 1 42 46 40 36 14 1
Route #7: 1 43 9 18 22 16 1
Route #8: 1 6 1
cost 1459
